GLPSOL--GLPK LP/MIP Solver 5.0
Parameter(s) specified in the command line:
 --lp ../modeles/10_84.lp --log 10_84.log
Reading problem data from '../modeles/10_84.lp'...
881 rows, 1700 columns, 5910 non-zeros
840 integer variables, all of which are binary
2597 lines were read
GLPK Integer Optimizer 5.0
881 rows, 1700 columns, 5910 non-zeros
840 integer variables, all of which are binary
Preprocessing...
820 constraint coefficient(s) were reduced
881 rows, 1690 columns, 5900 non-zeros
840 integer variables, all of which are binary
Scaling...
 A: min|aij| =  2.268e-03  max|aij| =  4.000e+00  ratio =  1.764e+03
GM: min|aij| =  1.543e-01  max|aij| =  6.481e+00  ratio =  4.200e+01
EQ: min|aij| =  2.381e-02  max|aij| =  1.000e+00  ratio =  4.200e+01
2N: min|aij| =  1.814e-02  max|aij| =  1.723e+00  ratio =  9.496e+01
Constructing initial basis...
Size of triangular part is 881
Solving LP relaxation...
GLPK Simplex Optimizer 5.0
881 rows, 1690 columns, 5900 non-zeros
      0: obj =   2.000000000e+01 inf =   4.950e+01 (21)
    129: obj =  -2.250922509e-01 inf =   0.000e+00 (0)
*   393: obj =  -3.153846154e+00 inf =   8.795e-16 (0)
OPTIMAL LP SOLUTION FOUND
Integer optimization begins...
Long-step dual simplex will be used
+   393: mip =     not found yet >=              -inf        (1; 0)
+   705: >>>>>  -3.153846154e+00 >=  -3.153846154e+00   0.0% (309; 0)
+   705: mip =  -3.153846154e+00 >=     tree is empty   0.0% (0; 617)
INTEGER OPTIMAL SOLUTION FOUND
Time used:   0.4 secs
Memory used: 2.6 Mb (2675036 bytes)
